41
[[-1, 0, 0, 0, 0, 45191, 40071, 0, 0, 0, 0, 0, 0, 0, 25500, 41623, 0, 0, 0, 0, 0, 0, 25635, 0, 0, 0, 0, 36241, 0, 0, 0, 0, 0, 0, 0, 0, 34700, 0, 19575, 0, 0],[0, -1, 0, 36267, 0, 23648, 0, 0, 0, 0, 0, 27928, 28644, 39292, 0, 23247, 0, 43406, 0, 26208, 37788, 0, 0, 0, 0, 0, 23381, 40918, 43425, 44166, 0, 36161, 0, 0, 0, 43925, 0, 0, 0, 0, 0],[0, 0, -1, 0, 24472, 0, 16072, 0, 0, 0, 0, 0, 41303, 0, 0, 43259, 0, 0, 41533, 23538, 0, 38887, 0, 0, 46312, 0, 0, 43944, 20460, 0, 0, 0, 0, 37764, 0, 43000, 0, 0, 0, 35079, 0],[0, 36267, 0, -1, 0, 189163168, 45853, 0, 0, 0, 31799, 38037, 0, 40121, 0, 0, 37627, 0, 0, 28320, 0, 0, 0, 0, 29344, 0, 0, 0, 0, 0, 0, 27747, 0, 0, 0, 0, 0, 0, 0, 0, 0],[0, 0, 24472, 0, -1, 41844, 0, 0, 0, 0, 0, 38990, 0, 0, 0, 0, 0, 0, 0, 0, 0, 0, 40541, 0, 0, 0, 0, 0, 33983, 0, 0, 24319, 0, 0, 41193, 0, 12834, 28268, 45965, 218724297, 0],[45191, 23648, 0, 189163168, 41844, -1, 0, 42528, 0, 0, 0, 0, 0, 0, 0, 0, 0, 0, 0, 0, 35455, 0, 0, 0, 0, 31937, 0, 1361721834, 0, 0, 0, 0, 0, 0, 24352, 0, 834982976, 43613, 0, 0, 35818],[40071, 0, 16072, 45853, 0, 0, -1, 0, 0, 15237, 0, 0, 0, 0, 0, 0, 41738, 6299, 0, 0, 21103, 39238, 0, 33458, 0, 0, 0, 0, 27420, 0, 0, 0, 0, 0, 36426, 0, 0, 0, 0, 0, 0],[0, 0, 0, 0, 0, 42528, 0, -1, 0, 0, 0, 38600, 0, 37866, 0, 0, 0, 0, 21817, 20206, 40897, 32310, 0, 0, 0, 0, 0, 39180, 0, 0, 0, 0, 0, 0, 0, 0, 0, 22022, 0, 0, 0],[0, 0, 0, 0, 0, 0, 0, 0, -1, 0, 0, 0, 0, 0, 0, 35912, 0, 0, 0, 42104, 0, 37414, 0, 0, 0, 44318, 0, 0, 0, 37028, 40887, 0, 0, 40410, 25058, 25233, 0, 0, 0, 0, 0],[0, 0, 0, 0, 0, 0, 15237, 0, 0, -1, 0, 0, 0, 7949, 0, 35048, 0, 0, 0, 0, 0, 6704, 0, 0, 0, 24379, 0, 36557, 0, 15083, 0, 0, 0, 14992, 0, 0, 0, 0, 0, 7418, 0],[0, 0, 0, 31799, 0, 0, 0, 0, 0, 0, -1, 0, 0, 0, 0, 0, 0, 0, 9061, 0, 0, 40536, 29708, 0, 0, 0, 0, 9090, 0, 0, 0, 0, 12018, 0, 0, 0, 0, 0, 0, 0, 0],[0, 27928, 0, 38037, 38990, 0, 0, 38600, 0, 0, 0, -1, 0, 26357, 0, 0, 0, 0, 0, 0, 0, 0, 0, 25994, 0, 0, 0, 0, 551563041, 43125, 27486, 10211, 42351, 0, 0, 0, 31125, 0, 14843, 0, 0],[0, 28644, 41303, 0, 0, 0, 0, 0, 0, 0, 0, 0, -1, 0, 23933, 22949, 0, 0, 0, 0, 0, 43945, 18413, 0, 0, 0, 0, 0, 36119, 0, 0, 0, 33242, 0, 0, 0, 29220, 0, 29884, 0, 0],[0, 39292, 0, 40121, 0, 0, 0, 37866, 0, 7949, 0, 26357, 0, -1, 10340, 0, 0, 0, 0, 0, 0, 40597, 0, 0, 0, 8994, 0, 0, 0, 0, 0, 0, 0, 0, 0, 0, 0, 0, 0, 0, 0],[25500, 0, 0, 0, 0, 0, 0, 0, 0, 0, 0, 0, 23933, 10340, -1, 0, 0, 23869, 0, 0, 38167, 0, 0, 0, 0, 0, 0, 0, 0, 0, 0, 32387, 0, 0, 0, 0, 0, 12354, 0, 13520, 0],[41623, 23247, 43259, 0, 0, 0, 0, 0, 35912, 35048, 0, 0, 22949, 0, 0, -1, 28902, 0, 792809638, 0, 0, 0, 35061, 0, 0, 0, 40832, 0, 0, 0, 0, 0, 22640, 0, 0, 0, 0, 0, 35821, 0, 0],[0, 0, 0, 37627, 0, 0, 41738, 0, 0, 0, 0, 0, 0, 0, 0, 28902, -1, 0, 0, 31378, 0, 44465, 0, 0, 35951, 0, 0, 0, 0, 0, 0, 0, 36128, 37295, 0, 0, 0, 0, 0, 0, 0],[0, 43406, 0, 0, 0, 0, 6299, 0, 0, 0, 0, 0, 0, 0, 23869, 0, 0, -1, 0, 0, 0, 34108, 0, 0, 0, 0, 0, 31317, 12500, 0, 0, 0, 6517, 0, 0, 14783, 0, 45048, 0, 0, 0],[0, 0, 41533, 0, 0, 0, 0, 21817, 0, 0, 9061, 0, 0, 0, 0, 792809638, 0, 0, -1, 0, 22976, 0, 0, 0, 0, 23086, 0, 0, 28282, 0, 0, 0, 35394, 0, 0, 0, 0, 0, 0, 21489, 35598],[0, 26208, 23538, 28320, 0, 0, 0, 20206, 42104, 0, 0, 0, 0, 0, 0, 0, 31378, 0, 0, -1, 0, 0, 45987, 0, 0, 42883, 0, 30386, 0, 0, 0, 0, 0, 0, 0, 40043, 0, 37350, 0, 0, 0],[0, 37788, 0, 0, 0, 35455, 21103, 40897, 0, 0, 0, 0, 0, 0, 38167, 0, 0, 0, 22976, 0, -1, 0, 5105, 0, 44274, 0, 0, 0, 37505, 0, 44202, 0, 0, 0, 0, 0, 0, 31067, 39495, 0, 0],[0, 0, 38887, 0, 0, 0, 39238, 32310, 37414, 6704, 40536, 0, 43945, 40597, 0, 0, 44465, 34108, 0, 0, 0, -1, 42523, 0, 0, 0, 45210, 0, 43249, 0, 32899, 0, 41767, 0, 0, 0, 0, 30932, 0, 0, 0],[25635, 0, 0, 0, 40541, 0, 0, 0, 0, 0, 29708, 0, 18413, 0, 0, 35061, 0, 0, 0, 45987, 5105, 42523, -1, 0, 0, 0, 0, 43257, 0, 17152, 4724, 0, 0, 0, 0, 0, 41491, 0, 0, 0, 0],[0, 0, 0, 0, 0, 0, 33458, 0, 0, 0, 0, 25994, 0, 0, 0, 0, 0, 0, 0, 0, 0, 0, 0, -1, 0, 0, 0, 0, 0, 0, 46173, 25831, 0, 0, 0, 0, 0, 0, 0, 0, 41552],[0, 0, 46312, 29344, 0, 0, 0, 0, 0, 0, 0, 0, 0, 0, 0, 0, 35951, 0, 0, 0, 44274, 0, 0, 0, -1, 0, 0, 0, 0, 0, 41723, 30695, 2980, 0, 0, 34961, 0, 0, 0, 0, 0],[0, 0, 0, 0, 0, 31937, 0, 0, 44318, 24379, 0, 0, 0, 8994, 0, 0, 0, 0, 23086, 42883, 0, 0, 0, 0, 0, -1, 0, 0, 0, 0, 0, 0, 0, 40344, 0, 39078, 0, 0, 0, 0, 0],[0, 23381, 0, 0, 0, 0, 0, 0, 0, 0, 0, 0, 0, 0, 0, 40832, 0, 0, 0, 0, 0, 45210, 0, 0, 0, 0, -1, 0, 0, 28978, 0, 0, 0, 0, 0, 0, 41594, 0, 0, 25509, 0],[36241, 40918, 43944, 0, 0, 1361721834, 0, 39180, 0, 36557, 9090, 0, 0, 0, 0, 0, 0, 31317, 0, 30386, 0, 0, 43257, 0, 0, 0, 0, -1, 0, 0, 0, 37658, 33166, 0, 0, 0, 0, 0, 0, 15066, 0],[0, 43425, 20460, 0, 33983, 0, 27420, 0, 0, 0, 0, 551563041, 36119, 0, 0, 0, 0, 12500, 28282, 0, 37505, 43249, 0, 0, 0, 0, 0, 0, -1, 25560, 34585, 0, 0, 42034, 0, 25014, 0, 23162, 0, 0, 0],[0, 44166, 0, 0, 0, 0, 0, 0, 37028, 15083, 0, 43125, 0, 0, 0, 0, 0, 0, 0, 0, 0, 0, 17152, 0, 0, 0, 28978, 0, 25560, -1, 0, 0, 0, 0, 27450, 0, 0, 31849, 27675, 0, 21931],[0, 0, 0, 0, 0, 0, 0, 0, 40887, 0, 0, 27486, 0, 0, 0, 0, 0, 0, 0, 0, 44202, 32899, 4724, 46173, 41723, 0, 0, 0, 34585, 0, -1, 45922, 0, 0, 0, 24478, 0, 0, 0, 0, 0],[0, 36161, 0, 27747, 24319, 0, 0, 0, 0, 0, 0, 10211, 0, 0, 32387, 0, 0, 0, 0, 0, 0, 0, 0, 25831, 30695, 0, 0, 37658, 0, 0, 45922, -1, 35546, 0, 0, 0, 0, 0, 0, 0, 0],[0, 0, 0, 0, 0, 0, 0, 0, 0, 0, 12018, 42351, 33242, 0, 0, 22640, 36128, 6517, 35394, 0, 0, 41767, 0, 0, 2980, 0, 0, 33166, 0, 0, 0, 35546, -1, 0, 0, 42826, 0, 29576, 0, 6622, 0],[0, 0, 37764, 0, 0, 0, 0, 0, 40410, 14992, 0, 0, 0, 0, 0, 0, 37295, 0, 0, 0, 0, 0, 0, 0, 0, 40344, 0, 0, 42034, 0, 0, 0, 0, -1, 0, 6058, 4326, 32329, 0, 0, 0],[0, 0, 0, 0, 41193, 24352, 36426, 0, 25058, 0, 0, 0, 0, 0, 0, 0, 0, 0, 0, 0, 0, 0, 0, 0, 0, 0, 0, 0, 0, 27450, 0, 0, 0, 0, -1, 0, 0, 0, 27340, 28599, 0],[0, 43925, 43000, 0, 0, 0, 0, 0, 25233, 0, 0, 0, 0, 0, 0, 0, 0, 14783, 0, 40043, 0, 0, 0, 0, 34961, 39078, 0, 0, 25014, 0, 24478, 0, 42826, 6058, 0, -1, 0, 0, 0, 0, 0],[34700, 0, 0, 0, 12834, 834982976, 0, 0, 0, 0, 0, 31125, 29220, 0, 0, 0, 0, 0, 0, 0, 0, 0, 41491, 0, 0, 0, 41594, 0, 0, 0, 0, 0, 0, 4326, 0, 0, -1, 31054, 45168, 9478, 0],[0, 0, 0, 0, 28268, 43613, 0, 22022, 0, 0, 0, 0, 0, 0, 12354, 0, 0, 45048, 0, 37350, 31067, 30932, 0, 0, 0, 0, 0, 0, 23162, 31849, 0, 0, 29576, 32329, 0, 0, 31054, -1, 0, 40537, 0],[19575, 0, 0, 0, 45965, 0, 0, 0, 0, 0, 0, 14843, 29884, 0, 0, 35821, 0, 0, 0, 0, 39495, 0, 0, 0, 0, 0, 0, 0, 0, 27675, 0, 0, 0, 0, 27340, 0, 45168, 0, -1, 0, 18119],[0, 0, 35079, 0, 218724297, 0, 0, 0, 0, 7418, 0, 0, 0, 0, 13520, 0, 0, 0, 21489, 0, 0, 0, 0, 0, 0, 0, 25509, 15066, 0, 0, 0, 0, 6622, 0, 28599, 0, 9478, 40537, 0, -1, 24245],[0, 0, 0, 0, 0, 35818, 0, 0, 0, 0, 0, 0, 0, 0, 0, 0, 0, 0, 35598, 0, 0, 0, 0, 41552, 0, 0, 0, 0, 0, 21931, 0, 0, 0, 0, 0, 0, 0, 0, 18119, 24245, -1]]